8
15
8 7 6 5 7 9 5 6 9 5 4 6 4 3 6
6 999 999 999 999 999 999 999
6 999 999 999 999 999 9 999
999 999 1 999 999 7 999 999
999 999 999 2 999 999 5 999
8 999 9 999 999 999 999 9
999 3 2 8 999 999 999 999
999 999 999 999 5 7 999 999
999 999 999 7 999 1 999 999
999 999 999 999 999 1 999 999
999 999 999 7 999 1 999 999
6 999 999 999 999 999 999 999
999 999 1 999 999 7 999 999
999 3 2 8 999 999 999 999
999 999 999 999 999 2 999 999
999 999 999 999 999 999 2 999
999 999 999 999 999 1 999 999
999 3 2 8 999 999 999 999
999 999 2 4 999 999 1 999
999 999 999 2 999 999 5 999
7 999 7 999 999 999 999 999
999 999 1 4 999 999 999 999
999 999 999 999 999 999 2 999
6 999 999 999 999 999 999 999
6 999 999 999 999 999 9 999
999 999 1 999 999 7 999 999
999 999 999 5 7 999 999 999
999 999 999 999 999 999 2 999
6 999 999 999 999 999 9 999
999 999 1 4 999 999 999 999
8 999 9 999 999 999 999 9
7 999 7 999 999 999 999 999
999 3 2 8 999 999 999 999
999 999 999 5 7 999 999 999
999 999 999 999 999 2 999 999
999 999 1 4 999 999 999 999
999 999 2 4 999 999 1 999
999 999 999 7 999 1 999 999
999 999 999 5 7 999 999 999
8 999 9 999 999 999 999 9
7 999 7 999 999 999 999 999
999 999 999 999 999 1 999 999
6 999 999 999 999 999 9 999
999 999 999 999 5 7 999 999
7 999 7 999 999 999 999 999
999 999 999 7 999 1 999 999
999 999 999 999 999 2 999 999
999 999 1 999 999 7 999 999
999 999 999 5 7 999 999 999
999 999 999 999 5 7 999 999
999 3 2 8 999 999 999 999
999 999 999 999 999 2 999 999
999 999 999 999 999 1 999 999
6 999 999 999 999 999 9 999
6 999 999 999 999 999 999 999
6 999 999 999 999 999 9 999
999 999 1 4 999 999 999 999
8 999 9 999 999 999 999 9
999 999 999 2 999 999 5 999
999 999 999 7 999 1 999 999
999 999 999 999 999 999 2 999
7 999 7 999 999 999 999 999
999 3 2 8 999 999 999 999
999 999 999 999 5 7 999 999
6 999 999 999 999 999 999 999
999 999 999 999 999 999 2 999
999 999 999 5 7 999 999 999
6 999 999 999 999 999 9 999
8 999 9 999 999 999 999 9
6 999 999 999 999 999 999 999
999 3 2 8 999 999 999 999
999 999 999 2 999 999 5 999
999 999 999 2 999 999 5 999
999 999 999 999 999 1 999 999
6 999 999 999 999 999 999 999
7 999 7 999 999 999 999 999
8 999 9 999 999 999 999 9
999 999 999 999 999 999 2 999
999 999 999 999 999 2 999 999
999 999 1 999 999 7 999 999
999 999 999 7 999 1 999 999
999 999 999 999 5 7 999 999
999 999 999 999 5 7 999 999
999 999 999 999 999 1 999 999
999 999 999 2 999 999 5 999
999 999 999 5 7 999 999 999
999 999 999 999 999 999 2 999
8 999 9 999 999 999 999 9
999 3 2 8 999 999 999 999
999 999 2 4 999 999 1 999
6 999 999 999 999 999 999 999
194725